20
1 0 3
2 0 2
2 1 5
3 0 1
3 1 4
3 2 5
4 0 3
4 1 1
4 2 3
4 3 4
5 0 2
5 1 5
5 2 2
5 3 3
5 4 4
6 0 3
6 1 2
6 2 2
6 3 2
6 4 5
6 5 2
7 0 4
7 1 1
7 2 1
7 3 1
7 4 1
7 5 4
7 6 3
8 0 5
8 1 1
8 2 4
8 3 2
8 4 2
8 5 1
8 6 5
8 7 3
9 0 2
9 1 3
9 2 3
9 3 2
9 4 3
9 5 1
9 6 1
9 7 5
9 8 2
10 0 1
10 1 1
10 2 3
10 3 2
10 4 2
10 5 2
10 6 1
10 7 3
10 8 4
10 9 4
11 0 5
11 1 3
11 2 4
11 3 4
11 4 5
11 5 2
11 6 5
11 7 4
11 8 3
11 9 2
11 10 4
12 0 4
12 1 1
12 2 2
12 3 3
12 4 3
12 5 3
12 6 1
12 7 2
12 8 3
12 9 4
12 10 3
12 11 1
13 0 3
13 1 5
13 2 5
13 3 3
13 4 4
13 5 2
13 6 5
13 7 4
13 8 3
13 9 3
13 10 2
13 11 4
13 12 4
14 0 3
14 1 4
14 2 3
14 3 5
14 4 1
14 5 4
14 6 5
14 7 3
14 8 3
14 9 1
14 10 4
14 11 5
14 12 4
14 13 4
15 0 3
15 1 2
15 2 4
15 3 3
15 4 1
15 5 5
15 6 4
15 7 2
15 8 5
15 9 3
15 10 1
15 11 1
15 12 5
15 13 4
15 14 1
16 0 2
16 1 1
16 2 4
16 3 1
16 4 5
16 5 4
16 6 3
16 7 4
16 8 4
16 9 2
16 10 1
16 11 5
16 12 4
16 13 4
16 14 5
16 15 1
17 0 3
17 1 5
17 2 1
17 3 4
17 4 5
17 5 2
17 6 4
17 7 5
17 8 2
17 9 1
17 10 2
17 11 2
17 12 4
17 13 3
17 14 4
17 15 5
17 16 5
18 0 5
18 1 5
18 2 4
18 3 2
18 4 2
18 5 3
18 6 3
18 7 3
18 8 3
18 9 5
18 10 2
18 11 4
18 12 1
18 13 2
18 14 1
18 15 1
18 16 3
18 17 3
19 0 5
19 1 4
19 2 4
19 3 3
19 4 3
19 5 4
19 6 1
19 7 1
19 8 5
19 9 2
19 10 5
19 11 4
19 12 3
19 13 2
19 14 2
19 15 3
19 16 4
19 17 5
19 18 5
